8
28
0 1 1303
0 2 997
0 3 1292
0 4 692
0 5 1132
0 6 1759
0 7 913
1 2 324
1 3 633
1 4 959
1 5 947
1 6 478
1 7 818
2 3 309
2 4 635
2 5 623
2 6 762
2 7 494
3 4 630
3 5 314
3 6 467
3 7 379
4 5 470
4 6 1097
4 7 251
5 6 627
5 7 219
6 7 846
